NAME : ct_6_n_3_k10_t_95
COMMENT : (ct_6_n_3_k10_t_95, Min no of trucks: 3, Optimal value: 84.87614986469877, Split: Yes)
TYPE : SDVRP
DIMENSION : 7
EDGE_WEIGHT_TYPE : EUC_2D
CAPACITY : 10
NODE_COORD_SECTION
1 0 0
2 2 4
3 8 1
4 -1 -10
5 -5 -6
6 -7 5
7 10 -6
DEMAND_SECTION
1 0
2 4.8
3 6.0
4 3.6
5 3.2
6 4.4
7 6.5
DEPOT_SECTION
 1
EOF